; benchmark generated from python API
(set-info :status unknown)
(declare-fun x_months () Int)
(declare-fun x_beta () Int)
(declare-fun y_months () Int)
(declare-fun y_beta () Int)
(assert
 (<= (- 1200) x_months))
(assert
 (>= 1199 x_months))
(assert
 (let ((?x2935 (mod x_months 48)))
 (let ((?x211 ((as const (Array Int Int)) 0)))
 (let ((?x213 (store ?x211 0 31)))
 (let ((?x216 (store ?x213 1 30)))
 (let ((?x218 (store ?x216 2 31)))
 (let ((?x220 (store ?x218 3 30)))
 (let ((?x222 (store ?x220 4 31)))
 (let ((?x224 (store ?x222 5 31)))
 (let ((?x226 (store ?x224 6 30)))
 (let ((?x228 (store ?x226 7 31)))
 (let ((?x230 (store ?x228 8 30)))
 (let ((?x232 (store ?x230 9 31)))
 (let ((?x234 (store ?x232 10 31)))
 (let ((?x237 (store ?x234 11 28)))
 (let ((?x239 (store ?x237 12 31)))
 (let ((?x241 (store ?x239 13 30)))
 (let ((?x243 (store ?x241 14 31)))
 (let ((?x245 (store ?x243 15 30)))
 (let ((?x247 (store ?x245 16 31)))
 (let ((?x249 (store ?x247 17 31)))
 (let ((?x251 (store ?x249 18 30)))
 (let ((?x253 (store ?x251 19 31)))
 (let ((?x255 (store ?x253 20 30)))
 (let ((?x257 (store ?x255 21 31)))
 (let ((?x259 (store ?x257 22 31)))
 (let ((?x261 (store ?x259 23 28)))
 (let ((?x263 (store ?x261 24 31)))
 (let ((?x265 (store ?x263 25 30)))
 (let ((?x267 (store ?x265 26 31)))
 (let ((?x269 (store ?x267 27 30)))
 (let ((?x270 (store ?x269 28 31)))
 (let ((?x272 (store ?x270 29 31)))
 (let ((?x273 (store ?x272 30 30)))
 (let ((?x274 (store ?x273 31 31)))
 (let ((?x276 (store ?x274 32 30)))
 (let ((?x278 (store ?x276 33 31)))
 (let ((?x280 (store ?x278 34 31)))
 (let ((?x282 (store ?x280 35 28)))
 (let ((?x284 (store ?x282 36 31)))
 (let ((?x286 (store ?x284 37 30)))
 (let ((?x288 (store ?x286 38 31)))
 (let ((?x290 (store ?x288 39 30)))
 (let ((?x292 (store ?x290 40 31)))
 (let ((?x294 (store ?x292 41 31)))
 (let ((?x296 (store ?x294 42 30)))
 (let ((?x298 (store ?x296 43 31)))
 (let ((?x300 (store ?x298 44 30)))
 (let ((?x302 (store ?x300 45 31)))
 (let ((?x304 (store ?x302 46 31)))
 (let ((?x306 (store ?x304 47 29)))
 (let ((?x2630 (ite (or (= 22802 (+ x_months 24003)) (= 25202 (+ x_months 24003))) 28 (select ?x306 ?x2935))))
 (let (($x3488 (<= 0 x_beta)))
 (and $x3488 (< x_beta ?x2630)))))))))))))))))))))))))))))))))))))))))))))))))))))))
(assert
 (<= (- 1200) y_months))
(assert
 (>= 1199 y_months))
(assert
 (let ((?x1669 (mod y_months 48)))
 (let ((?x211 ((as const (Array Int Int)) 0)))
 (let ((?x213 (store ?x211 0 31)))
 (let ((?x216 (store ?x213 1 30)))
 (let ((?x218 (store ?x216 2 31)))
 (let ((?x220 (store ?x218 3 30)))
 (let ((?x222 (store ?x220 4 31)))
 (let ((?x224 (store ?x222 5 31)))
 (let ((?x226 (store ?x224 6 30)))
 (let ((?x228 (store ?x226 7 31)))
 (let ((?x230 (store ?x228 8 30)))
 (let ((?x232 (store ?x230 9 31)))
 (let ((?x234 (store ?x232 10 31)))
 (let ((?x237 (store ?x234 11 28)))
 (let ((?x239 (store ?x237 12 31)))
 (let ((?x241 (store ?x239 13 30)))
 (let ((?x243 (store ?x241 14 31)))
 (let ((?x245 (store ?x243 15 30)))
 (let ((?x247 (store ?x245 16 31)))
 (let ((?x249 (store ?x247 17 31)))
 (let ((?x251 (store ?x249 18 30)))
 (let ((?x253 (store ?x251 19 31)))
 (let ((?x255 (store ?x253 20 30)))
 (let ((?x257 (store ?x255 21 31)))
 (let ((?x259 (store ?x257 22 31)))
 (let ((?x261 (store ?x259 23 28)))
 (let ((?x263 (store ?x261 24 31)))
 (let ((?x265 (store ?x263 25 30)))
 (let ((?x267 (store ?x265 26 31)))
 (let ((?x269 (store ?x267 27 30)))
 (let ((?x270 (store ?x269 28 31)))
 (let ((?x272 (store ?x270 29 31)))
 (let ((?x273 (store ?x272 30 30)))
 (let ((?x274 (store ?x273 31 31)))
 (let ((?x276 (store ?x274 32 30)))
 (let ((?x278 (store ?x276 33 31)))
 (let ((?x280 (store ?x278 34 31)))
 (let ((?x282 (store ?x280 35 28)))
 (let ((?x284 (store ?x282 36 31)))
 (let ((?x286 (store ?x284 37 30)))
 (let ((?x288 (store ?x286 38 31)))
 (let ((?x290 (store ?x288 39 30)))
 (let ((?x292 (store ?x290 40 31)))
 (let ((?x294 (store ?x292 41 31)))
 (let ((?x296 (store ?x294 42 30)))
 (let ((?x298 (store ?x296 43 31)))
 (let ((?x300 (store ?x298 44 30)))
 (let ((?x302 (store ?x300 45 31)))
 (let ((?x304 (store ?x302 46 31)))
 (let ((?x306 (store ?x304 47 29)))
 (let ((?x1548 (select ?x306 ?x1669)))
 (let ((?x5815 (ite (or (= 22802 (+ y_months 24003)) (= 25202 (+ y_months 24003))) 28 ?x1548)))
 (let (($x2179 (<= 0 y_beta)))
 (and $x2179 (< y_beta ?x5815))))))))))))))))))))))))))))))))))))))))))))))))))))))))
(assert
 (let (($x3488 (<= 0 x_beta)))
 (or (> x_months (- (+ (* 2023 12) 6) 24003)) (and (= x_months (- (+ (* 2023 12) 6) 24003)) $x3488))))
(assert
 (let ((?x3467 (ite (> 22803 (+ (+ x_months 1) 24003)) 1 (ite (<= 25203 (+ (+ x_months 1) 24003)) (- 1) 0))))
 (let ((?x4527 (+ x_months 1)))
 (let ((?x2689 (mod ?x4527 48)))
 (let ((?x211 ((as const (Array Int Int)) 0)))
 (let ((?x213 (store ?x211 0 31)))
 (let ((?x216 (store ?x213 1 30)))
 (let ((?x218 (store ?x216 2 31)))
 (let ((?x220 (store ?x218 3 30)))
 (let ((?x222 (store ?x220 4 31)))
 (let ((?x224 (store ?x222 5 31)))
 (let ((?x226 (store ?x224 6 30)))
 (let ((?x228 (store ?x226 7 31)))
 (let ((?x230 (store ?x228 8 30)))
 (let ((?x232 (store ?x230 9 31)))
 (let ((?x234 (store ?x232 10 31)))
 (let ((?x237 (store ?x234 11 28)))
 (let ((?x239 (store ?x237 12 31)))
 (let ((?x241 (store ?x239 13 30)))
 (let ((?x243 (store ?x241 14 31)))
 (let ((?x245 (store ?x243 15 30)))
 (let ((?x247 (store ?x245 16 31)))
 (let ((?x249 (store ?x247 17 31)))
 (let ((?x251 (store ?x249 18 30)))
 (let ((?x253 (store ?x251 19 31)))
 (let ((?x255 (store ?x253 20 30)))
 (let ((?x257 (store ?x255 21 31)))
 (let ((?x259 (store ?x257 22 31)))
 (let ((?x261 (store ?x259 23 28)))
 (let ((?x263 (store ?x261 24 31)))
 (let ((?x265 (store ?x263 25 30)))
 (let ((?x267 (store ?x265 26 31)))
 (let ((?x269 (store ?x267 27 30)))
 (let ((?x270 (store ?x269 28 31)))
 (let ((?x272 (store ?x270 29 31)))
 (let ((?x273 (store ?x272 30 30)))
 (let ((?x274 (store ?x273 31 31)))
 (let ((?x276 (store ?x274 32 30)))
 (let ((?x278 (store ?x276 33 31)))
 (let ((?x280 (store ?x278 34 31)))
 (let ((?x282 (store ?x280 35 28)))
 (let ((?x284 (store ?x282 36 31)))
 (let ((?x286 (store ?x284 37 30)))
 (let ((?x288 (store ?x286 38 31)))
 (let ((?x290 (store ?x288 39 30)))
 (let ((?x292 (store ?x290 40 31)))
 (let ((?x294 (store ?x292 41 31)))
 (let ((?x296 (store ?x294 42 30)))
 (let ((?x298 (store ?x296 43 31)))
 (let ((?x300 (store ?x298 44 30)))
 (let ((?x302 (store ?x300 45 31)))
 (let ((?x304 (store ?x302 46 31)))
 (let ((?x306 (store ?x304 47 29)))
 (let ((?x6010 (ite (or (= 22802 (+ ?x4527 24003)) (= 25202 (+ ?x4527 24003))) 28 (select ?x306 ?x2689))))
 (let ((?x963 (- ?x6010 1)))
 (let ((?x312 (store (store (store (store ?x211 0 0) 1 31) 2 61) 3 92)))
 (let ((?x320 (store (store (store (store ?x312 4 122) 5 153) 6 184) 7 214)))
 (let ((?x328 (store (store (store (store ?x320 8 245) 9 275) 10 306) 11 337)))
 (let ((?x336 (store (store (store (store ?x328 12 365) 13 396) 14 426) 15 457)))
 (let ((?x344 (store (store (store (store ?x336 16 487) 17 518) 18 549) 19 579)))
 (let ((?x352 (store (store (store (store ?x344 20 610) 21 640) 22 671) 23 702)))
 (let ((?x360 (store (store (store (store ?x352 24 730) 25 761) 26 791) 27 822)))
 (let ((?x368 (store (store (store (store ?x360 28 852) 29 883) 30 914) 31 944)))
 (let ((?x376 (store (store (store (store ?x368 32 975) 33 1005) 34 1036) 35 1067)))
 (let ((?x384 (store (store (store (store ?x376 36 1095) 37 1126) 38 1156) 39 1187)))
 (let ((?x392 (store (store (store (store ?x384 40 1217) 41 1248) 42 1279) 43 1309)))
 (let ((?x400 (store (store (store (store ?x392 44 1340) 45 1370) 46 1401) 47 1432)))
 (let ((?x3747 (+ (select ?x400 ?x2689) (ite (> 0 x_beta) 0 (ite (> x_beta ?x963) ?x963 x_beta)))))
 (let ((?x6760 (+ (+ ?x3747 ?x3467) 0)))
 (let ((?x5940 (+ ?x4527 (* (div ?x6760 1461) 48))))
 (let ((?x5311 (+ (+ ?x5940 (- 1 ?x2689)) 24003)))
 (let ((?x5207 (select ?x400 1)))
 (let ((?x3122 (mod ?x6760 1461)))
 (let (($x4861 (>= ?x3122 (+ ?x5207 (ite (> 22803 ?x5311) 1 (ite (<= 25203 ?x5311) (- 1) 0))))))
 (let ((?x3192 (ite (> 22803 (+ (+ ?x5940 (- 2 ?x2689)) 24003)) 1 (ite (<= 25203 (+ (+ ?x5940 (- 2 ?x2689)) 24003)) (- 1) 0))))
 (let ((?x3601 (select ?x400 2)))
 (let ((?x4381 (ite (> 22803 (+ (+ ?x5940 (- 3 ?x2689)) 24003)) 1 (ite (<= 25203 (+ (+ ?x5940 (- 3 ?x2689)) 24003)) (- 1) 0))))
 (let ((?x6620 (select ?x400 3)))
 (let ((?x5359 (ite (>= ?x3122 (+ ?x6620 ?x4381)) 3 (ite (>= ?x3122 (+ ?x3601 ?x3192)) 2 (ite $x4861 1 0)))))
 (let ((?x3419 (ite (> 22803 (+ (+ ?x5940 (- 4 ?x2689)) 24003)) 1 (ite (<= 25203 (+ (+ ?x5940 (- 4 ?x2689)) 24003)) (- 1) 0))))
 (let ((?x1587 (select ?x400 4)))
 (let ((?x3136 (ite (> 22803 (+ (+ ?x5940 (- 5 ?x2689)) 24003)) 1 (ite (<= 25203 (+ (+ ?x5940 (- 5 ?x2689)) 24003)) (- 1) 0))))
 (let ((?x2268 (select ?x400 5)))
 (let ((?x5503 (ite (>= ?x3122 (+ ?x2268 ?x3136)) 5 (ite (>= ?x3122 (+ ?x1587 ?x3419)) 4 ?x5359))))
 (let ((?x4888 (ite (> 22803 (+ (+ ?x5940 (- 6 ?x2689)) 24003)) 1 (ite (<= 25203 (+ (+ ?x5940 (- 6 ?x2689)) 24003)) (- 1) 0))))
 (let ((?x4167 (select ?x400 6)))
 (let ((?x4887 (ite (> 22803 (+ (+ ?x5940 (- 7 ?x2689)) 24003)) 1 (ite (<= 25203 (+ (+ ?x5940 (- 7 ?x2689)) 24003)) (- 1) 0))))
 (let ((?x4117 (select ?x400 7)))
 (let ((?x5290 (ite (>= ?x3122 (+ ?x4117 ?x4887)) 7 (ite (>= ?x3122 (+ ?x4167 ?x4888)) 6 ?x5503))))
 (let ((?x4650 (ite (> 22803 (+ (+ ?x5940 (- 8 ?x2689)) 24003)) 1 (ite (<= 25203 (+ (+ ?x5940 (- 8 ?x2689)) 24003)) (- 1) 0))))
 (let ((?x1918 (select ?x400 8)))
 (let ((?x4673 (ite (> 22803 (+ (+ ?x5940 (- 9 ?x2689)) 24003)) 1 (ite (<= 25203 (+ (+ ?x5940 (- 9 ?x2689)) 24003)) (- 1) 0))))
 (let ((?x4271 (select ?x400 9)))
 (let ((?x1330 (ite (>= ?x3122 (+ ?x4271 ?x4673)) 9 (ite (>= ?x3122 (+ ?x1918 ?x4650)) 8 ?x5290))))
 (let ((?x1299 (ite (> 22803 (+ (+ ?x5940 (- 10 ?x2689)) 24003)) 1 (ite (<= 25203 (+ (+ ?x5940 (- 10 ?x2689)) 24003)) (- 1) 0))))
 (let ((?x668 (select ?x400 10)))
 (let ((?x914 (ite (> 22803 (+ (+ ?x5940 (- 11 ?x2689)) 24003)) 1 (ite (<= 25203 (+ (+ ?x5940 (- 11 ?x2689)) 24003)) (- 1) 0))))
 (let ((?x2389 (select ?x400 11)))
 (let ((?x5444 (ite (>= ?x3122 (+ ?x2389 ?x914)) 11 (ite (>= ?x3122 (+ ?x668 ?x1299)) 10 ?x1330))))
 (let ((?x2047 (ite (> 22803 (+ (+ ?x5940 (- 12 ?x2689)) 24003)) 1 (ite (<= 25203 (+ (+ ?x5940 (- 12 ?x2689)) 24003)) (- 1) 0))))
 (let ((?x2926 (select ?x400 12)))
 (let ((?x4127 (ite (> 22803 (+ (+ ?x5940 (- 13 ?x2689)) 24003)) 1 (ite (<= 25203 (+ (+ ?x5940 (- 13 ?x2689)) 24003)) (- 1) 0))))
 (let ((?x2621 (select ?x400 13)))
 (let ((?x4458 (ite (>= ?x3122 (+ ?x2621 ?x4127)) 13 (ite (>= ?x3122 (+ ?x2926 ?x2047)) 12 ?x5444))))
 (let ((?x3821 (ite (> 22803 (+ (+ ?x5940 (- 14 ?x2689)) 24003)) 1 (ite (<= 25203 (+ (+ ?x5940 (- 14 ?x2689)) 24003)) (- 1) 0))))
 (let ((?x5885 (select ?x400 14)))
 (let ((?x2937 (ite (> 22803 (+ (+ ?x5940 (- 15 ?x2689)) 24003)) 1 (ite (<= 25203 (+ (+ ?x5940 (- 15 ?x2689)) 24003)) (- 1) 0))))
 (let ((?x6946 (select ?x400 15)))
 (let ((?x5878 (ite (>= ?x3122 (+ ?x6946 ?x2937)) 15 (ite (>= ?x3122 (+ ?x5885 ?x3821)) 14 ?x4458))))
 (let ((?x4727 (ite (> 22803 (+ (+ ?x5940 (- 16 ?x2689)) 24003)) 1 (ite (<= 25203 (+ (+ ?x5940 (- 16 ?x2689)) 24003)) (- 1) 0))))
 (let ((?x6782 (select ?x400 16)))
 (let ((?x2535 (ite (> 22803 (+ (+ ?x5940 (- 17 ?x2689)) 24003)) 1 (ite (<= 25203 (+ (+ ?x5940 (- 17 ?x2689)) 24003)) (- 1) 0))))
 (let ((?x4544 (select ?x400 17)))
 (let ((?x3249 (ite (>= ?x3122 (+ ?x4544 ?x2535)) 17 (ite (>= ?x3122 (+ ?x6782 ?x4727)) 16 ?x5878))))
 (let ((?x4809 (ite (> 22803 (+ (+ ?x5940 (- 18 ?x2689)) 24003)) 1 (ite (<= 25203 (+ (+ ?x5940 (- 18 ?x2689)) 24003)) (- 1) 0))))
 (let ((?x5271 (select ?x400 18)))
 (let ((?x4643 (ite (> 22803 (+ (+ ?x5940 (- 19 ?x2689)) 24003)) 1 (ite (<= 25203 (+ (+ ?x5940 (- 19 ?x2689)) 24003)) (- 1) 0))))
 (let ((?x3675 (select ?x400 19)))
 (let ((?x1777 (ite (>= ?x3122 (+ ?x3675 ?x4643)) 19 (ite (>= ?x3122 (+ ?x5271 ?x4809)) 18 ?x3249))))
 (let ((?x5148 (ite (> 22803 (+ (+ ?x5940 (- 20 ?x2689)) 24003)) 1 (ite (<= 25203 (+ (+ ?x5940 (- 20 ?x2689)) 24003)) (- 1) 0))))
 (let ((?x3656 (select ?x400 20)))
 (let ((?x7062 (ite (> 22803 (+ (+ ?x5940 (- 21 ?x2689)) 24003)) 1 (ite (<= 25203 (+ (+ ?x5940 (- 21 ?x2689)) 24003)) (- 1) 0))))
 (let ((?x5732 (select ?x400 21)))
 (let ((?x5355 (ite (>= ?x3122 (+ ?x5732 ?x7062)) 21 (ite (>= ?x3122 (+ ?x3656 ?x5148)) 20 ?x1777))))
 (let ((?x6415 (ite (> 22803 (+ (+ ?x5940 (- 22 ?x2689)) 24003)) 1 (ite (<= 25203 (+ (+ ?x5940 (- 22 ?x2689)) 24003)) (- 1) 0))))
 (let ((?x6414 (select ?x400 22)))
 (let ((?x5849 (ite (> 22803 (+ (+ ?x5940 (- 23 ?x2689)) 24003)) 1 (ite (<= 25203 (+ (+ ?x5940 (- 23 ?x2689)) 24003)) (- 1) 0))))
 (let ((?x1947 (select ?x400 23)))
 (let ((?x1403 (ite (>= ?x3122 (+ ?x1947 ?x5849)) 23 (ite (>= ?x3122 (+ ?x6414 ?x6415)) 22 ?x5355))))
 (let ((?x2485 (ite (> 22803 (+ (+ ?x5940 (- 24 ?x2689)) 24003)) 1 (ite (<= 25203 (+ (+ ?x5940 (- 24 ?x2689)) 24003)) (- 1) 0))))
 (let ((?x5773 (select ?x400 24)))
 (let ((?x5590 (ite (> 22803 (+ (+ ?x5940 (- 25 ?x2689)) 24003)) 1 (ite (<= 25203 (+ (+ ?x5940 (- 25 ?x2689)) 24003)) (- 1) 0))))
 (let ((?x1002 (select ?x400 25)))
 (let ((?x4695 (ite (>= ?x3122 (+ ?x1002 ?x5590)) 25 (ite (>= ?x3122 (+ ?x5773 ?x2485)) 24 ?x1403))))
 (let ((?x5858 (ite (> 22803 (+ (+ ?x5940 (- 26 ?x2689)) 24003)) 1 (ite (<= 25203 (+ (+ ?x5940 (- 26 ?x2689)) 24003)) (- 1) 0))))
 (let ((?x1982 (select ?x400 26)))
 (let ((?x5666 (ite (> 22803 (+ (+ ?x5940 (- 27 ?x2689)) 24003)) 1 (ite (<= 25203 (+ (+ ?x5940 (- 27 ?x2689)) 24003)) (- 1) 0))))
 (let ((?x6261 (select ?x400 27)))
 (let ((?x2588 (ite (>= ?x3122 (+ ?x6261 ?x5666)) 27 (ite (>= ?x3122 (+ ?x1982 ?x5858)) 26 ?x4695))))
 (let ((?x5803 (ite (> 22803 (+ (+ ?x5940 (- 28 ?x2689)) 24003)) 1 (ite (<= 25203 (+ (+ ?x5940 (- 28 ?x2689)) 24003)) (- 1) 0))))
 (let ((?x1928 (select ?x400 28)))
 (let ((?x2088 (ite (> 22803 (+ (+ ?x5940 (- 29 ?x2689)) 24003)) 1 (ite (<= 25203 (+ (+ ?x5940 (- 29 ?x2689)) 24003)) (- 1) 0))))
 (let ((?x6012 (select ?x400 29)))
 (let ((?x5477 (ite (>= ?x3122 (+ ?x6012 ?x2088)) 29 (ite (>= ?x3122 (+ ?x1928 ?x5803)) 28 ?x2588))))
 (let ((?x1563 (ite (> 22803 (+ (+ ?x5940 (- 30 ?x2689)) 24003)) 1 (ite (<= 25203 (+ (+ ?x5940 (- 30 ?x2689)) 24003)) (- 1) 0))))
 (let ((?x5360 (select ?x400 30)))
 (let ((?x5675 (ite (> 22803 (+ (+ ?x5940 (- 31 ?x2689)) 24003)) 1 (ite (<= 25203 (+ (+ ?x5940 (- 31 ?x2689)) 24003)) (- 1) 0))))
 (let ((?x5768 (select ?x400 31)))
 (let ((?x6914 (ite (>= ?x3122 (+ ?x5768 ?x5675)) 31 (ite (>= ?x3122 (+ ?x5360 ?x1563)) 30 ?x5477))))
 (let ((?x4773 (ite (> 22803 (+ (+ ?x5940 (- 32 ?x2689)) 24003)) 1 (ite (<= 25203 (+ (+ ?x5940 (- 32 ?x2689)) 24003)) (- 1) 0))))
 (let ((?x2330 (select ?x400 32)))
 (let ((?x3850 (ite (> 22803 (+ (+ ?x5940 (- 33 ?x2689)) 24003)) 1 (ite (<= 25203 (+ (+ ?x5940 (- 33 ?x2689)) 24003)) (- 1) 0))))
 (let ((?x5309 (select ?x400 33)))
 (let ((?x2294 (ite (>= ?x3122 (+ ?x5309 ?x3850)) 33 (ite (>= ?x3122 (+ ?x2330 ?x4773)) 32 ?x6914))))
 (let ((?x676 (ite (> 22803 (+ (+ ?x5940 (- 34 ?x2689)) 24003)) 1 (ite (<= 25203 (+ (+ ?x5940 (- 34 ?x2689)) 24003)) (- 1) 0))))
 (let ((?x2299 (select ?x400 34)))
 (let ((?x874 (ite (> 22803 (+ (+ ?x5940 (- 35 ?x2689)) 24003)) 1 (ite (<= 25203 (+ (+ ?x5940 (- 35 ?x2689)) 24003)) (- 1) 0))))
 (let ((?x4181 (select ?x400 35)))
 (let ((?x5409 (ite (>= ?x3122 (+ ?x4181 ?x874)) 35 (ite (>= ?x3122 (+ ?x2299 ?x676)) 34 ?x2294))))
 (let ((?x5569 (ite (> 22803 (+ (+ ?x5940 (- 36 ?x2689)) 24003)) 1 (ite (<= 25203 (+ (+ ?x5940 (- 36 ?x2689)) 24003)) (- 1) 0))))
 (let ((?x3457 (select ?x400 36)))
 (let ((?x1712 (ite (> 22803 (+ (+ ?x5940 (- 37 ?x2689)) 24003)) 1 (ite (<= 25203 (+ (+ ?x5940 (- 37 ?x2689)) 24003)) (- 1) 0))))
 (let ((?x6996 (select ?x400 37)))
 (let ((?x4157 (ite (>= ?x3122 (+ ?x6996 ?x1712)) 37 (ite (>= ?x3122 (+ ?x3457 ?x5569)) 36 ?x5409))))
 (let ((?x5614 (ite (> 22803 (+ (+ ?x5940 (- 38 ?x2689)) 24003)) 1 (ite (<= 25203 (+ (+ ?x5940 (- 38 ?x2689)) 24003)) (- 1) 0))))
 (let ((?x6461 (select ?x400 38)))
 (let ((?x6269 (ite (> 22803 (+ (+ ?x5940 (- 39 ?x2689)) 24003)) 1 (ite (<= 25203 (+ (+ ?x5940 (- 39 ?x2689)) 24003)) (- 1) 0))))
 (let ((?x5101 (select ?x400 39)))
 (let ((?x5073 (ite (>= ?x3122 (+ ?x5101 ?x6269)) 39 (ite (>= ?x3122 (+ ?x6461 ?x5614)) 38 ?x4157))))
 (let ((?x4746 (ite (> 22803 (+ (+ ?x5940 (- 40 ?x2689)) 24003)) 1 (ite (<= 25203 (+ (+ ?x5940 (- 40 ?x2689)) 24003)) (- 1) 0))))
 (let ((?x5008 (select ?x400 40)))
 (let ((?x1133 (ite (> 22803 (+ (+ ?x5940 (- 41 ?x2689)) 24003)) 1 (ite (<= 25203 (+ (+ ?x5940 (- 41 ?x2689)) 24003)) (- 1) 0))))
 (let ((?x1450 (select ?x400 41)))
 (let ((?x5936 (ite (>= ?x3122 (+ ?x1450 ?x1133)) 41 (ite (>= ?x3122 (+ ?x5008 ?x4746)) 40 ?x5073))))
 (let ((?x2872 (ite (> 22803 (+ (+ ?x5940 (- 42 ?x2689)) 24003)) 1 (ite (<= 25203 (+ (+ ?x5940 (- 42 ?x2689)) 24003)) (- 1) 0))))
 (let ((?x805 (select ?x400 42)))
 (let ((?x666 (ite (> 22803 (+ (+ ?x5940 (- 43 ?x2689)) 24003)) 1 (ite (<= 25203 (+ (+ ?x5940 (- 43 ?x2689)) 24003)) (- 1) 0))))
 (let ((?x1794 (select ?x400 43)))
 (let ((?x6796 (ite (>= ?x3122 (+ ?x1794 ?x666)) 43 (ite (>= ?x3122 (+ ?x805 ?x2872)) 42 ?x5936))))
 (let ((?x2956 (ite (> 22803 (+ (+ ?x5940 (- 44 ?x2689)) 24003)) 1 (ite (<= 25203 (+ (+ ?x5940 (- 44 ?x2689)) 24003)) (- 1) 0))))
 (let ((?x4772 (select ?x400 44)))
 (let ((?x6056 (ite (> 22803 (+ (+ ?x5940 (- 45 ?x2689)) 24003)) 1 (ite (<= 25203 (+ (+ ?x5940 (- 45 ?x2689)) 24003)) (- 1) 0))))
 (let ((?x1655 (select ?x400 45)))
 (let ((?x6779 (ite (>= ?x3122 (+ ?x1655 ?x6056)) 45 (ite (>= ?x3122 (+ ?x4772 ?x2956)) 44 ?x6796))))
 (let ((?x2168 (ite (> 22803 (+ (+ ?x5940 (- 46 ?x2689)) 24003)) 1 (ite (<= 25203 (+ (+ ?x5940 (- 46 ?x2689)) 24003)) (- 1) 0))))
 (let ((?x5744 (select ?x400 46)))
 (let ((?x5103 (ite (> 22803 (+ (+ ?x5940 (- 47 ?x2689)) 24003)) 1 (ite (<= 25203 (+ (+ ?x5940 (- 47 ?x2689)) 24003)) (- 1) 0))))
 (let ((?x4729 (select ?x400 47)))
 (let ((?x4937 (ite (>= ?x3122 (+ ?x4729 ?x5103)) 47 (ite (>= ?x3122 (+ ?x5744 ?x2168)) 46 ?x6779))))
 (let (($x5098 (or (= 22802 (+ (+ ?x5940 (- ?x4937 ?x2689)) 24003)) (= 25202 (+ (+ ?x5940 (- ?x4937 ?x2689)) 24003)))))
 (let ((?x5846 (ite $x5098 28 (select ?x306 ?x4937))))
 (let ((?x462 (ite (> 22803 (+ (+ ?x5940 (- ?x4937 ?x2689)) 24003)) 1 (ite (<= 25203 (+ (+ ?x5940 (- ?x4937 ?x2689)) 24003)) (- 1) 0))))
 (let ((?x5667 (- ?x3122 (+ (select ?x400 ?x4937) ?x462))))
 (let ((?x3600 (ite (>= ?x5667 ?x5846) 1 0)))
 (let ((?x2189 (+ ?x5940 (- ?x4937 ?x2689))))
 (let ((?x1424 (+ (+ ?x2189 ?x3600) 0)))
 (let ((?x3713 (mod ?x1424 48)))
 (let ((?x3676 (ite (> 22803 (+ ?x1424 24003)) 1 (ite (<= 25203 (+ ?x1424 24003)) (- 1) 0))))
 (let ((?x4502 (ite (= 1 ?x3600) (- ?x5667 ?x5846) ?x5667)))
 (let ((?x4822 (ite (or (= 22802 (+ ?x1424 24003)) (= 25202 (+ ?x1424 24003))) 28 (select ?x306 ?x3713))))
 (let ((?x6404 (- ?x4822 1)))
 (let ((?x5109 (+ (select ?x400 ?x3713) (ite (> 0 ?x4502) 0 (ite (> ?x4502 ?x6404) ?x6404 ?x4502)))))
 (let ((?x5657 (+ (+ ?x5109 ?x3676) 15)))
 (let ((?x2787 (+ ?x1424 (* (div ?x5657 1461) 48))))
 (let ((?x4129 (+ (+ ?x2787 (- 1 ?x3713)) 24003)))
 (let ((?x4759 (mod ?x5657 1461)))
 (let (($x4526 (>= ?x4759 (+ ?x5207 (ite (> 22803 ?x4129) 1 (ite (<= 25203 ?x4129) (- 1) 0))))))
 (let ((?x6150 (ite (> 22803 (+ (+ ?x2787 (- 2 ?x3713)) 24003)) 1 (ite (<= 25203 (+ (+ ?x2787 (- 2 ?x3713)) 24003)) (- 1) 0))))
 (let ((?x6964 (ite (> 22803 (+ (+ ?x2787 (- 3 ?x3713)) 24003)) 1 (ite (<= 25203 (+ (+ ?x2787 (- 3 ?x3713)) 24003)) (- 1) 0))))
 (let ((?x2549 (ite (>= ?x4759 (+ ?x6620 ?x6964)) 3 (ite (>= ?x4759 (+ ?x3601 ?x6150)) 2 (ite $x4526 1 0)))))
 (let ((?x1939 (ite (> 22803 (+ (+ ?x2787 (- 4 ?x3713)) 24003)) 1 (ite (<= 25203 (+ (+ ?x2787 (- 4 ?x3713)) 24003)) (- 1) 0))))
 (let ((?x5438 (ite (> 22803 (+ (+ ?x2787 (- 5 ?x3713)) 24003)) 1 (ite (<= 25203 (+ (+ ?x2787 (- 5 ?x3713)) 24003)) (- 1) 0))))
 (let ((?x4102 (ite (>= ?x4759 (+ ?x2268 ?x5438)) 5 (ite (>= ?x4759 (+ ?x1587 ?x1939)) 4 ?x2549))))
 (let ((?x4270 (ite (> 22803 (+ (+ ?x2787 (- 6 ?x3713)) 24003)) 1 (ite (<= 25203 (+ (+ ?x2787 (- 6 ?x3713)) 24003)) (- 1) 0))))
 (let ((?x4894 (ite (> 22803 (+ (+ ?x2787 (- 7 ?x3713)) 24003)) 1 (ite (<= 25203 (+ (+ ?x2787 (- 7 ?x3713)) 24003)) (- 1) 0))))
 (let ((?x4302 (ite (>= ?x4759 (+ ?x4117 ?x4894)) 7 (ite (>= ?x4759 (+ ?x4167 ?x4270)) 6 ?x4102))))
 (let ((?x3229 (ite (> 22803 (+ (+ ?x2787 (- 8 ?x3713)) 24003)) 1 (ite (<= 25203 (+ (+ ?x2787 (- 8 ?x3713)) 24003)) (- 1) 0))))
 (let ((?x6378 (ite (> 22803 (+ (+ ?x2787 (- 9 ?x3713)) 24003)) 1 (ite (<= 25203 (+ (+ ?x2787 (- 9 ?x3713)) 24003)) (- 1) 0))))
 (let ((?x5044 (ite (>= ?x4759 (+ ?x4271 ?x6378)) 9 (ite (>= ?x4759 (+ ?x1918 ?x3229)) 8 ?x4302))))
 (let ((?x5180 (ite (> 22803 (+ (+ ?x2787 (- 10 ?x3713)) 24003)) 1 (ite (<= 25203 (+ (+ ?x2787 (- 10 ?x3713)) 24003)) (- 1) 0))))
 (let ((?x6467 (ite (> 22803 (+ (+ ?x2787 (- 11 ?x3713)) 24003)) 1 (ite (<= 25203 (+ (+ ?x2787 (- 11 ?x3713)) 24003)) (- 1) 0))))
 (let ((?x5346 (ite (>= ?x4759 (+ ?x2389 ?x6467)) 11 (ite (>= ?x4759 (+ ?x668 ?x5180)) 10 ?x5044))))
 (let ((?x5033 (ite (> 22803 (+ (+ ?x2787 (- 12 ?x3713)) 24003)) 1 (ite (<= 25203 (+ (+ ?x2787 (- 12 ?x3713)) 24003)) (- 1) 0))))
 (let ((?x5471 (ite (> 22803 (+ (+ ?x2787 (- 13 ?x3713)) 24003)) 1 (ite (<= 25203 (+ (+ ?x2787 (- 13 ?x3713)) 24003)) (- 1) 0))))
 (let ((?x7004 (ite (>= ?x4759 (+ ?x2621 ?x5471)) 13 (ite (>= ?x4759 (+ ?x2926 ?x5033)) 12 ?x5346))))
 (let ((?x6965 (ite (> 22803 (+ (+ ?x2787 (- 14 ?x3713)) 24003)) 1 (ite (<= 25203 (+ (+ ?x2787 (- 14 ?x3713)) 24003)) (- 1) 0))))
 (let ((?x6260 (ite (> 22803 (+ (+ ?x2787 (- 15 ?x3713)) 24003)) 1 (ite (<= 25203 (+ (+ ?x2787 (- 15 ?x3713)) 24003)) (- 1) 0))))
 (let ((?x6323 (ite (>= ?x4759 (+ ?x6946 ?x6260)) 15 (ite (>= ?x4759 (+ ?x5885 ?x6965)) 14 ?x7004))))
 (let ((?x1027 (ite (> 22803 (+ (+ ?x2787 (- 16 ?x3713)) 24003)) 1 (ite (<= 25203 (+ (+ ?x2787 (- 16 ?x3713)) 24003)) (- 1) 0))))
 (let ((?x6834 (ite (> 22803 (+ (+ ?x2787 (- 17 ?x3713)) 24003)) 1 (ite (<= 25203 (+ (+ ?x2787 (- 17 ?x3713)) 24003)) (- 1) 0))))
 (let ((?x1687 (ite (>= ?x4759 (+ ?x4544 ?x6834)) 17 (ite (>= ?x4759 (+ ?x6782 ?x1027)) 16 ?x6323))))
 (let ((?x2434 (ite (> 22803 (+ (+ ?x2787 (- 18 ?x3713)) 24003)) 1 (ite (<= 25203 (+ (+ ?x2787 (- 18 ?x3713)) 24003)) (- 1) 0))))
 (let ((?x1959 (ite (> 22803 (+ (+ ?x2787 (- 19 ?x3713)) 24003)) 1 (ite (<= 25203 (+ (+ ?x2787 (- 19 ?x3713)) 24003)) (- 1) 0))))
 (let ((?x1104 (ite (>= ?x4759 (+ ?x3675 ?x1959)) 19 (ite (>= ?x4759 (+ ?x5271 ?x2434)) 18 ?x1687))))
 (let ((?x6223 (ite (> 22803 (+ (+ ?x2787 (- 20 ?x3713)) 24003)) 1 (ite (<= 25203 (+ (+ ?x2787 (- 20 ?x3713)) 24003)) (- 1) 0))))
 (let ((?x1858 (ite (> 22803 (+ (+ ?x2787 (- 21 ?x3713)) 24003)) 1 (ite (<= 25203 (+ (+ ?x2787 (- 21 ?x3713)) 24003)) (- 1) 0))))
 (let ((?x6163 (ite (>= ?x4759 (+ ?x5732 ?x1858)) 21 (ite (>= ?x4759 (+ ?x3656 ?x6223)) 20 ?x1104))))
 (let ((?x4884 (ite (> 22803 (+ (+ ?x2787 (- 22 ?x3713)) 24003)) 1 (ite (<= 25203 (+ (+ ?x2787 (- 22 ?x3713)) 24003)) (- 1) 0))))
 (let ((?x5215 (ite (> 22803 (+ (+ ?x2787 (- 23 ?x3713)) 24003)) 1 (ite (<= 25203 (+ (+ ?x2787 (- 23 ?x3713)) 24003)) (- 1) 0))))
 (let ((?x6089 (ite (>= ?x4759 (+ ?x1947 ?x5215)) 23 (ite (>= ?x4759 (+ ?x6414 ?x4884)) 22 ?x6163))))
 (let ((?x4832 (ite (> 22803 (+ (+ ?x2787 (- 24 ?x3713)) 24003)) 1 (ite (<= 25203 (+ (+ ?x2787 (- 24 ?x3713)) 24003)) (- 1) 0))))
 (let ((?x1416 (ite (> 22803 (+ (+ ?x2787 (- 25 ?x3713)) 24003)) 1 (ite (<= 25203 (+ (+ ?x2787 (- 25 ?x3713)) 24003)) (- 1) 0))))
 (let ((?x3118 (ite (>= ?x4759 (+ ?x1002 ?x1416)) 25 (ite (>= ?x4759 (+ ?x5773 ?x4832)) 24 ?x6089))))
 (let ((?x3174 (ite (> 22803 (+ (+ ?x2787 (- 26 ?x3713)) 24003)) 1 (ite (<= 25203 (+ (+ ?x2787 (- 26 ?x3713)) 24003)) (- 1) 0))))
 (let ((?x4305 (ite (> 22803 (+ (+ ?x2787 (- 27 ?x3713)) 24003)) 1 (ite (<= 25203 (+ (+ ?x2787 (- 27 ?x3713)) 24003)) (- 1) 0))))
 (let ((?x1238 (ite (>= ?x4759 (+ ?x6261 ?x4305)) 27 (ite (>= ?x4759 (+ ?x1982 ?x3174)) 26 ?x3118))))
 (let ((?x5791 (ite (> 22803 (+ (+ ?x2787 (- 28 ?x3713)) 24003)) 1 (ite (<= 25203 (+ (+ ?x2787 (- 28 ?x3713)) 24003)) (- 1) 0))))
 (let ((?x6955 (ite (> 22803 (+ (+ ?x2787 (- 29 ?x3713)) 24003)) 1 (ite (<= 25203 (+ (+ ?x2787 (- 29 ?x3713)) 24003)) (- 1) 0))))
 (let ((?x6700 (ite (>= ?x4759 (+ ?x6012 ?x6955)) 29 (ite (>= ?x4759 (+ ?x1928 ?x5791)) 28 ?x1238))))
 (let ((?x4945 (ite (> 22803 (+ (+ ?x2787 (- 30 ?x3713)) 24003)) 1 (ite (<= 25203 (+ (+ ?x2787 (- 30 ?x3713)) 24003)) (- 1) 0))))
 (let ((?x4847 (ite (> 22803 (+ (+ ?x2787 (- 31 ?x3713)) 24003)) 1 (ite (<= 25203 (+ (+ ?x2787 (- 31 ?x3713)) 24003)) (- 1) 0))))
 (let ((?x2394 (ite (>= ?x4759 (+ ?x5768 ?x4847)) 31 (ite (>= ?x4759 (+ ?x5360 ?x4945)) 30 ?x6700))))
 (let ((?x4355 (ite (> 22803 (+ (+ ?x2787 (- 32 ?x3713)) 24003)) 1 (ite (<= 25203 (+ (+ ?x2787 (- 32 ?x3713)) 24003)) (- 1) 0))))
 (let ((?x6201 (ite (> 22803 (+ (+ ?x2787 (- 33 ?x3713)) 24003)) 1 (ite (<= 25203 (+ (+ ?x2787 (- 33 ?x3713)) 24003)) (- 1) 0))))
 (let ((?x5696 (ite (>= ?x4759 (+ ?x5309 ?x6201)) 33 (ite (>= ?x4759 (+ ?x2330 ?x4355)) 32 ?x2394))))
 (let ((?x1197 (ite (> 22803 (+ (+ ?x2787 (- 34 ?x3713)) 24003)) 1 (ite (<= 25203 (+ (+ ?x2787 (- 34 ?x3713)) 24003)) (- 1) 0))))
 (let ((?x7021 (ite (> 22803 (+ (+ ?x2787 (- 35 ?x3713)) 24003)) 1 (ite (<= 25203 (+ (+ ?x2787 (- 35 ?x3713)) 24003)) (- 1) 0))))
 (let ((?x6407 (ite (>= ?x4759 (+ ?x4181 ?x7021)) 35 (ite (>= ?x4759 (+ ?x2299 ?x1197)) 34 ?x5696))))
 (let ((?x1196 (ite (> 22803 (+ (+ ?x2787 (- 36 ?x3713)) 24003)) 1 (ite (<= 25203 (+ (+ ?x2787 (- 36 ?x3713)) 24003)) (- 1) 0))))
 (let ((?x5542 (ite (> 22803 (+ (+ ?x2787 (- 37 ?x3713)) 24003)) 1 (ite (<= 25203 (+ (+ ?x2787 (- 37 ?x3713)) 24003)) (- 1) 0))))
 (let ((?x5388 (ite (>= ?x4759 (+ ?x6996 ?x5542)) 37 (ite (>= ?x4759 (+ ?x3457 ?x1196)) 36 ?x6407))))
 (let ((?x5948 (ite (> 22803 (+ (+ ?x2787 (- 38 ?x3713)) 24003)) 1 (ite (<= 25203 (+ (+ ?x2787 (- 38 ?x3713)) 24003)) (- 1) 0))))
 (let ((?x6498 (ite (> 22803 (+ (+ ?x2787 (- 39 ?x3713)) 24003)) 1 (ite (<= 25203 (+ (+ ?x2787 (- 39 ?x3713)) 24003)) (- 1) 0))))
 (let ((?x5771 (ite (>= ?x4759 (+ ?x5101 ?x6498)) 39 (ite (>= ?x4759 (+ ?x6461 ?x5948)) 38 ?x5388))))
 (let ((?x602 (ite (> 22803 (+ (+ ?x2787 (- 40 ?x3713)) 24003)) 1 (ite (<= 25203 (+ (+ ?x2787 (- 40 ?x3713)) 24003)) (- 1) 0))))
 (let ((?x4984 (ite (> 22803 (+ (+ ?x2787 (- 41 ?x3713)) 24003)) 1 (ite (<= 25203 (+ (+ ?x2787 (- 41 ?x3713)) 24003)) (- 1) 0))))
 (let ((?x2175 (ite (>= ?x4759 (+ ?x1450 ?x4984)) 41 (ite (>= ?x4759 (+ ?x5008 ?x602)) 40 ?x5771))))
 (let ((?x3053 (ite (> 22803 (+ (+ ?x2787 (- 42 ?x3713)) 24003)) 1 (ite (<= 25203 (+ (+ ?x2787 (- 42 ?x3713)) 24003)) (- 1) 0))))
 (let ((?x3860 (ite (> 22803 (+ (+ ?x2787 (- 43 ?x3713)) 24003)) 1 (ite (<= 25203 (+ (+ ?x2787 (- 43 ?x3713)) 24003)) (- 1) 0))))
 (let ((?x3768 (ite (>= ?x4759 (+ ?x1794 ?x3860)) 43 (ite (>= ?x4759 (+ ?x805 ?x3053)) 42 ?x2175))))
 (let ((?x2577 (ite (> 22803 (+ (+ ?x2787 (- 44 ?x3713)) 24003)) 1 (ite (<= 25203 (+ (+ ?x2787 (- 44 ?x3713)) 24003)) (- 1) 0))))
 (let ((?x4541 (ite (> 22803 (+ (+ ?x2787 (- 45 ?x3713)) 24003)) 1 (ite (<= 25203 (+ (+ ?x2787 (- 45 ?x3713)) 24003)) (- 1) 0))))
 (let ((?x3923 (ite (>= ?x4759 (+ ?x1655 ?x4541)) 45 (ite (>= ?x4759 (+ ?x4772 ?x2577)) 44 ?x3768))))
 (let ((?x852 (ite (> 22803 (+ (+ ?x2787 (- 46 ?x3713)) 24003)) 1 (ite (<= 25203 (+ (+ ?x2787 (- 46 ?x3713)) 24003)) (- 1) 0))))
 (let ((?x6094 (ite (> 22803 (+ (+ ?x2787 (- 47 ?x3713)) 24003)) 1 (ite (<= 25203 (+ (+ ?x2787 (- 47 ?x3713)) 24003)) (- 1) 0))))
 (let ((?x4836 (ite (>= ?x4759 (+ ?x4729 ?x6094)) 47 (ite (>= ?x4759 (+ ?x5744 ?x852)) 46 ?x3923))))
 (let ((?x4474 (+ ?x2787 (- ?x4836 ?x3713))))
 (let ((?x6936 (+ ?x4474 24003)))
 (let ((?x2572 (+ (select ?x400 ?x4836) (ite (> 22803 ?x6936) 1 (ite (<= 25203 ?x6936) (- 1) 0)))))
 (let ((?x2908 (- ?x4759 ?x2572)))
 (let ((?x4443 (ite (or (= 22802 ?x6936) (= 25202 ?x6936)) 28 (select ?x306 ?x4836))))
 (let (($x3219 (= (ite (= 1 (ite (>= ?x2908 ?x4443) 1 0)) (- ?x2908 ?x4443) ?x2908) y_beta)))
 (and (= (+ ?x4474 (ite (>= ?x2908 ?x4443) 1 0)) y_months) $x3219)))))))))))))))))))))))))))))))))))))))))))))))))))))))))))))))))))))))))))))))))))))))))))))))))))))))))))))))))))))))))))))))))))))))))))))))))))))))))))))))))))))))))))))))))))))))))))))))))))))))))))))))))))))))))))))))))))))))))))))))))))))))))))))))))))))))))))))))))))))))))))
(assert
 (let (($x2179 (<= 0 y_beta)))
(or (> y_months (- (+ (* 2023 12) 6) 24003)) (and (= y_months (- (+ (* 2023 12) 6) 24003)) $x2179))))
(check-sat)
